p tdp 59 58
27 46
36 47
17 59
16 30
32 28
9 51
38 3
31 19
13 51
18 44
56 39
21 47
56 57
22 52
48 26
32 33
24 17
45 20
1 15
37 22
55 9
5 14
7 46
52 41
18 51
36 12
16 9
20 53
50 19
29 40
7 1
31 23
37 4
58 10
34 39
53 49
25 11
2 43
5 54
29 24
33 39
33 48
36 28
2 21
59 53
23 35
27 51
4 38
57 25
14 6
4 8
6 46
43 13
12 10
50 42
40 41
23 21
37 5
